dis_froz_max =   6.5000000000d+00
dis_froz_min =  -3.5000000000d+00
dis_num_iter = 1000
dis_win_max =   1.6000000000d+01
dis_win_min =  -4.5000000000d+00
mp_grid = 6, 6, 6
num_bands = 36
num_iter = 0
num_wann = 14
spinors = .true.
use_ws_distance = .true.
write_hr = .true.
write_xyz = .true.

begin atoms_cart
ang
In         0.0000000000       0.0000000000       0.0000000000 
Sb         1.6197500000       1.6197500000       1.6197500000 
end atoms_cart

begin kpoints
      0.0000000000       0.0000000000       0.0000000000
      0.1666666667       0.0000000000       0.0000000000
      0.3333333333       0.0000000000       0.0000000000
      0.5000000000       0.0000000000       0.0000000000
     -0.3333333333       0.0000000000       0.0000000000
     -0.1666666667       0.0000000000       0.0000000000
      0.0000000000       0.1666666667       0.0000000000
      0.1666666667       0.1666666667       0.0000000000
      0.3333333333       0.1666666667       0.0000000000
      0.5000000000       0.1666666667       0.0000000000
     -0.3333333333       0.1666666667       0.0000000000
     -0.1666666667       0.1666666667       0.0000000000
      0.0000000000       0.3333333333       0.0000000000
      0.1666666667       0.3333333333       0.0000000000
      0.3333333333       0.3333333333       0.0000000000
      0.5000000000       0.3333333333       0.0000000000
     -0.3333333333       0.3333333333       0.0000000000
     -0.1666666667       0.3333333333       0.0000000000
      0.0000000000       0.5000000000       0.0000000000
      0.1666666667       0.5000000000       0.0000000000
      0.3333333333       0.5000000000       0.0000000000
      0.5000000000       0.5000000000       0.0000000000
     -0.3333333333       0.5000000000       0.0000000000
     -0.1666666667       0.5000000000       0.0000000000
      0.0000000000      -0.3333333333       0.0000000000
      0.1666666667      -0.3333333333       0.0000000000
      0.3333333333      -0.3333333333       0.0000000000
      0.5000000000      -0.3333333333       0.0000000000
     -0.3333333333      -0.3333333333       0.0000000000
     -0.1666666667      -0.3333333333       0.0000000000
      0.0000000000      -0.1666666667       0.0000000000
      0.1666666667      -0.1666666667       0.0000000000
      0.3333333333      -0.1666666667       0.0000000000
      0.5000000000      -0.1666666667       0.0000000000
     -0.3333333333      -0.1666666667       0.0000000000
     -0.1666666667      -0.1666666667       0.0000000000
      0.0000000000       0.0000000000       0.1666666667
      0.1666666667       0.0000000000       0.1666666667
      0.3333333333       0.0000000000       0.1666666667
      0.5000000000       0.0000000000       0.1666666667
     -0.3333333333       0.0000000000       0.1666666667
     -0.1666666667       0.0000000000       0.1666666667
      0.0000000000       0.1666666667       0.1666666667
      0.1666666667       0.1666666667       0.1666666667
      0.3333333333       0.1666666667       0.1666666667
      0.5000000000       0.1666666667       0.1666666667
     -0.3333333333       0.1666666667       0.1666666667
     -0.1666666667       0.1666666667       0.1666666667
      0.0000000000       0.3333333333       0.1666666667
      0.1666666667       0.3333333333       0.1666666667
      0.3333333333       0.3333333333       0.1666666667
      0.5000000000       0.3333333333       0.1666666667
     -0.3333333333       0.3333333333       0.1666666667
     -0.1666666667       0.3333333333       0.1666666667
      0.0000000000       0.5000000000       0.1666666667
      0.1666666667       0.5000000000       0.1666666667
      0.3333333333       0.5000000000       0.1666666667
      0.5000000000       0.5000000000       0.1666666667
     -0.3333333333       0.5000000000       0.1666666667
     -0.1666666667       0.5000000000       0.1666666667
      0.0000000000      -0.3333333333       0.1666666667
      0.1666666667      -0.3333333333       0.1666666667
      0.3333333333      -0.3333333333       0.1666666667
      0.5000000000      -0.3333333333       0.1666666667
     -0.3333333333      -0.3333333333       0.1666666667
     -0.1666666667      -0.3333333333       0.1666666667
      0.0000000000      -0.1666666667       0.1666666667
      0.1666666667      -0.1666666667       0.1666666667
      0.3333333333      -0.1666666667       0.1666666667
      0.5000000000      -0.1666666667       0.1666666667
     -0.3333333333      -0.1666666667       0.1666666667
     -0.1666666667      -0.1666666667       0.1666666667
      0.0000000000       0.0000000000       0.3333333333
      0.1666666667       0.0000000000       0.3333333333
      0.3333333333       0.0000000000       0.3333333333
      0.5000000000       0.0000000000       0.3333333333
     -0.3333333333       0.0000000000       0.3333333333
     -0.1666666667       0.0000000000       0.3333333333
      0.0000000000       0.1666666667       0.3333333333
      0.1666666667       0.1666666667       0.3333333333
      0.3333333333       0.1666666667       0.3333333333
      0.5000000000       0.1666666667       0.3333333333
     -0.3333333333       0.1666666667       0.3333333333
     -0.1666666667       0.1666666667       0.3333333333
      0.0000000000       0.3333333333       0.3333333333
      0.1666666667       0.3333333333       0.3333333333
      0.3333333333       0.3333333333       0.3333333333
      0.5000000000       0.3333333333       0.3333333333
     -0.3333333333       0.3333333333       0.3333333333
     -0.1666666667       0.3333333333       0.3333333333
      0.0000000000       0.5000000000       0.3333333333
      0.1666666667       0.5000000000       0.3333333333
      0.3333333333       0.5000000000       0.3333333333
      0.5000000000       0.5000000000       0.3333333333
     -0.3333333333       0.5000000000       0.3333333333
     -0.1666666667       0.5000000000       0.3333333333
      0.0000000000      -0.3333333333       0.3333333333
      0.1666666667      -0.3333333333       0.3333333333
      0.3333333333      -0.3333333333       0.3333333333
      0.5000000000      -0.3333333333       0.3333333333
     -0.3333333333      -0.3333333333       0.3333333333
     -0.1666666667      -0.3333333333       0.3333333333
      0.0000000000      -0.1666666667       0.3333333333
      0.1666666667      -0.1666666667       0.3333333333
      0.3333333333      -0.1666666667       0.3333333333
      0.5000000000      -0.1666666667       0.3333333333
     -0.3333333333      -0.1666666667       0.3333333333
     -0.1666666667      -0.1666666667       0.3333333333
      0.0000000000       0.0000000000       0.5000000000
      0.1666666667       0.0000000000       0.5000000000
      0.3333333333       0.0000000000       0.5000000000
      0.5000000000       0.0000000000       0.5000000000
     -0.3333333333       0.0000000000       0.5000000000
     -0.1666666667       0.0000000000       0.5000000000
      0.0000000000       0.1666666667       0.5000000000
      0.1666666667       0.1666666667       0.5000000000
      0.3333333333       0.1666666667       0.5000000000
      0.5000000000       0.1666666667       0.5000000000
     -0.3333333333       0.1666666667       0.5000000000
     -0.1666666667       0.1666666667       0.5000000000
      0.0000000000       0.3333333333       0.5000000000
      0.1666666667       0.3333333333       0.5000000000
      0.3333333333       0.3333333333       0.5000000000
      0.5000000000       0.3333333333       0.5000000000
     -0.3333333333       0.3333333333       0.5000000000
     -0.1666666667       0.3333333333       0.5000000000
      0.0000000000       0.5000000000       0.5000000000
      0.1666666667       0.5000000000       0.5000000000
      0.3333333333       0.5000000000       0.5000000000
      0.5000000000       0.5000000000       0.5000000000
     -0.3333333333       0.5000000000       0.5000000000
     -0.1666666667       0.5000000000       0.5000000000
      0.0000000000      -0.3333333333       0.5000000000
      0.1666666667      -0.3333333333       0.5000000000
      0.3333333333      -0.3333333333       0.5000000000
      0.5000000000      -0.3333333333       0.5000000000
     -0.3333333333      -0.3333333333       0.5000000000
     -0.1666666667      -0.3333333333       0.5000000000
      0.0000000000      -0.1666666667       0.5000000000
      0.1666666667      -0.1666666667       0.5000000000
      0.3333333333      -0.1666666667       0.5000000000
      0.5000000000      -0.1666666667       0.5000000000
     -0.3333333333      -0.1666666667       0.5000000000
     -0.1666666667      -0.1666666667       0.5000000000
      0.0000000000       0.0000000000      -0.3333333333
      0.1666666667       0.0000000000      -0.3333333333
      0.3333333333       0.0000000000      -0.3333333333
      0.5000000000       0.0000000000      -0.3333333333
     -0.3333333333       0.0000000000      -0.3333333333
     -0.1666666667       0.0000000000      -0.3333333333
      0.0000000000       0.1666666667      -0.3333333333
      0.1666666667       0.1666666667      -0.3333333333
      0.3333333333       0.1666666667      -0.3333333333
      0.5000000000       0.1666666667      -0.3333333333
     -0.3333333333       0.1666666667      -0.3333333333
     -0.1666666667       0.1666666667      -0.3333333333
      0.0000000000       0.3333333333      -0.3333333333
      0.1666666667       0.3333333333      -0.3333333333
      0.3333333333       0.3333333333      -0.3333333333
      0.5000000000       0.3333333333      -0.3333333333
     -0.3333333333       0.3333333333      -0.3333333333
     -0.1666666667       0.3333333333      -0.3333333333
      0.0000000000       0.5000000000      -0.3333333333
      0.1666666667       0.5000000000      -0.3333333333
      0.3333333333       0.5000000000      -0.3333333333
      0.5000000000       0.5000000000      -0.3333333333
     -0.3333333333       0.5000000000      -0.3333333333
     -0.1666666667       0.5000000000      -0.3333333333
      0.0000000000      -0.3333333333      -0.3333333333
      0.1666666667      -0.3333333333      -0.3333333333
      0.3333333333      -0.3333333333      -0.3333333333
      0.5000000000      -0.3333333333      -0.3333333333
     -0.3333333333      -0.3333333333      -0.3333333333
     -0.1666666667      -0.3333333333      -0.3333333333
      0.0000000000      -0.1666666667      -0.3333333333
      0.1666666667      -0.1666666667      -0.3333333333
      0.3333333333      -0.1666666667      -0.3333333333
      0.5000000000      -0.1666666667      -0.3333333333
     -0.3333333333      -0.1666666667      -0.3333333333
     -0.1666666667      -0.1666666667      -0.3333333333
      0.0000000000       0.0000000000      -0.1666666667
      0.1666666667       0.0000000000      -0.1666666667
      0.3333333333       0.0000000000      -0.1666666667
      0.5000000000       0.0000000000      -0.1666666667
     -0.3333333333       0.0000000000      -0.1666666667
     -0.1666666667       0.0000000000      -0.1666666667
      0.0000000000       0.1666666667      -0.1666666667
      0.1666666667       0.1666666667      -0.1666666667
      0.3333333333       0.1666666667      -0.1666666667
      0.5000000000       0.1666666667      -0.1666666667
     -0.3333333333       0.1666666667      -0.1666666667
     -0.1666666667       0.1666666667      -0.1666666667
      0.0000000000       0.3333333333      -0.1666666667
      0.1666666667       0.3333333333      -0.1666666667
      0.3333333333       0.3333333333      -0.1666666667
      0.5000000000       0.3333333333      -0.1666666667
     -0.3333333333       0.3333333333      -0.1666666667
     -0.1666666667       0.3333333333      -0.1666666667
      0.0000000000       0.5000000000      -0.1666666667
      0.1666666667       0.5000000000      -0.1666666667
      0.3333333333       0.5000000000      -0.1666666667
      0.5000000000       0.5000000000      -0.1666666667
     -0.3333333333       0.5000000000      -0.1666666667
     -0.1666666667       0.5000000000      -0.1666666667
      0.0000000000      -0.3333333333      -0.1666666667
      0.1666666667      -0.3333333333      -0.1666666667
      0.3333333333      -0.3333333333      -0.1666666667
      0.5000000000      -0.3333333333      -0.1666666667
     -0.3333333333      -0.3333333333      -0.1666666667
     -0.1666666667      -0.3333333333      -0.1666666667
      0.0000000000      -0.1666666667      -0.1666666667
      0.1666666667      -0.1666666667      -0.1666666667
      0.3333333333      -0.1666666667      -0.1666666667
      0.5000000000      -0.1666666667      -0.1666666667
     -0.3333333333      -0.1666666667      -0.1666666667
     -0.1666666667      -0.1666666667      -0.1666666667
end kpoints

begin projections
end projections

begin unit_cell_cart
ang
      0.0000000000       3.2395000000       3.2395000000
      3.2395000000       0.0000000000       3.2395000000
      3.2395000000       3.2395000000       0.0000000000
end unit_cell_cart
